NAME : XML100_2146_08
DIMENSION : 101
NB_CLUSTERS : 10
CLUSTERING_ALG : KMeans
CLUSTERING_PARAMS : k(9)
CLUSTERS
1 0
2 5 27 45 48 60 66 70 80 88 91
3 13 30 41 44 55 63 86 87 90 93 96 98
4 1 9 16 18 23 31 43 52
5 6 50 69 75 79 81 95 100
6 4 15 19 32 36 46 67 77 78 85 89
7 22 33 34 38 49 56 92
8 12 14 20 25 28 40 51 61 71
9 8 10 11 17 26 29 35 39 47 57 59 62 64 65 72 73 74 82 84 99
10 2 3 7 21 24 37 42 53 54 58 68 76 83 94 97
EOF